\ This file has been generated by DOcplex
\ ENCODING=ISO-8859-1
\Problem name: dectiger problem

Minimize
 obj: V
Subject To
 c1: V + 120.546093750000 a1_u0_x0 + 176.593750000000 a1_u1_x0
     + 121.593750000000 a1_u2_x0 + 100.110156250000 a1_u0_x1
     + 94.406250000000 a1_u1_x1 + 149.406250000000 a1_u2_x1 >= 0
 c2: V + 176.593750000000 a1_u0_x0 + 151.093750000000 a1_u1_x0
     + 176.093750000000 a1_u2_x0 + 94.406250000000 a1_u0_x1
     + 88.906250000000 a1_u1_x1 + 148.906250000000 a1_u2_x1 >= 0
 c3: V + 121.593750000000 a1_u0_x0 + 176.093750000000 a1_u1_x0
     + 116.093750000000 a1_u2_x0 + 149.406250000000 a1_u0_x1
     + 148.906250000000 a1_u1_x1 + 123.906250000000 a1_u2_x1 >= 0
 c4: a1_u0_x0 + a1_u1_x0 + a1_u2_x0 = 1
 c5: a1_u0_x1 + a1_u1_x1 + a1_u2_x1 = 1

Bounds
       V Free
End
